n_boats=80;
n_periods=20;
capacity=[14,1,30,7,23,16,2,3,22,24,22,23,21,7,25,5,18,29,24,1,14,15,30,24,22,12,4,20,21,8,27,29,6,8,4,27,3,24,9,4,5,16,15,29,15,14,14,24,9,18,17,11,28,11,7,15,9,3,28,3,15,23,4,16,10,16,4,4,19,29,25,18,23,23,16,19,23,24,3,13];
crew=[11,1,24,4,16,3,1,3,18,10,1,22,13,6,19,3,8,18,13,1,13,13,6,21,21,7,4,16,14,3,18,7,4,2,2,10,2,16,1,2,2,15,14,20,1,4,11,5,1,18,8,7,13,9,4,11,7,1,18,2,2,1,2,3,1,14,2,2,12,10,1,18,11,23,13,3,8,15,1,6];
